$molecule
    0 1
H
H 1 1.0 
$end

$rem
    EXCHANGE            HF
    BASIS               6-31+G*
$end


