$molecule
    0 1
C   0.0000000000000000E+00   0.0000000000000000E+00   0.0000000000000000E+00   
H   0.1377100000000000E+01   0.1188100000000000E+01   0.9992000000000000E+00  
H  -0.1188100000000000E+01  -0.1377100000000000E+01   0.9992000000000000E+00  
H  -0.1377100000000000E+01   0.1377100000000000E+01  -0.1188100000000000E+01   
H   0.9992000000000000E+00  -0.1188100000000000E+01  -0.1188100000000000E+01
$end

$rem
    !EXCHANGE            HF
    !CORRELATION         CI
    EXCHANGE            BHHLYP !50% HF +  50% Becke88 exchange
    BASIS               6-31+G*
    UNRESTRICTED        True
    MAX_SCF_CYCLES      500
    SYM_IGNORE          True
    SCF_Algorithm       DIIS
    SCF_GUESS           Read 

    SPIN_FLIP           True
    SET_Iter            100

    CALC_NAC            True 
    CIS_DER_NUMSTATE    5  
    
    CIS_N_ROOTS         5 
$end

$derivative_coupling
   comment https://manual.q-chem.com/5.0/sec-MECPs.html
    1 2 3 4 5
$end

