$molecule
    0 1
C   0.0000000000000000E+00   0.0000000000000000E+00   0.0000000000000000E+00   
H   0.1377100000000000E+01   0.1188100000000000E+01   0.9992000000000000E+00  
H  -0.1188100000000000E+01  -0.1377100000000000E+01   0.9992000000000000E+00  
H  -0.1377100000000000E+01   0.1377100000000000E+01  -0.1188100000000000E+01   
H   0.9992000000000000E+00  -0.1188100000000000E+01  -0.1188100000000000E+01
$end

$rem
    JOBTYPE             Force
    !EXCHANGE            HF
    !CORRELATION         CI
    EXCHANGE            BHHLYP !50% HF +  50% Becke88 exchange 
    BASIS               6-31+G*
    UNRESTRICTED        True
    MAX_SCF_CYCLES      500
    SYM_IGNORE          True
    SCF_Algorithm       DIIS
    SCF_GUESS           Read

    SPIN_FLIP           True
    SET_Iter            100

    CIS_STATE_DERIV     2
    CIS_TRIPLETS        False
$end

